db/inputs/84913882120946417167428872267921537.smt2
(set-logic QF_FP)
(declare-const x0 (_ FloatingPoint 11 53))
(declare-const x1 (_ FloatingPoint 11 53))
(declare-const x2 (_ FloatingPoint 11 53))
(declare-const x3 (_ FloatingPoint 11 53))
(declare-const x4 (_ FloatingPoint 11 53))
(declare-const x5 (_ FloatingPoint 11 53))
(declare-const x6 (_ FloatingPoint 11 53))
(declare-const x7 (_ FloatingPoint 11 53))
(assert (fp.geq (fp.div RNE (fp.sub RNE x2 x0) (fp.sub RNE x0 x0)) (fp.mul RNE (fp.mul RNE x4 x3) (fp.sub RNE x4 x0))))
(assert (fp.eq (fp.neg (fp.neg x6)) (fp.sub RNE (fp.add RNE x3 x7) (fp.mul RNE x2 x0))))
(check-sat)
