db/data/84913882120946417167428872267921537.z3.out
sat
-------------------
82.900736195
